p cnf 6 8
c 1 int_INTERPRETERS_JERRYSCRIPT_PRIORITY_EQ_100
c 2 int_INTERPRETERS_JERRYSCRIPT_PRIORITY_EQ_OTHERVAL
c 3 int_INTERPRETERS_JERRYSCRIPT_STACKSIZE_EQ_16384
c 4 int_INTERPRETERS_JERRYSCRIPT_STACKSIZE_EQ_OTHERVAL
c 5 boolean_INTERPRETERS_JERRYSCRIPT
c 6 missFeature
-2 -3 0
2 3 -6 0
6 -3 0
6 -2 0
-4 -5 0
4 5 -6 0
6 -5 0
6 -4 0